(set-option :produce-models true)
(set-logic QF_LRA)
(set-info :notes | Strip-packing problem.|)
(declare-fun x0 () Real)
(declare-fun y0 () Real)
(declare-fun x1 () Real)
(declare-fun y1 () Real)
(declare-fun x2 () Real)
(declare-fun y2 () Real)
(declare-fun x3 () Real)
(declare-fun y3 () Real)
(declare-fun x4 () Real)
(declare-fun y4 () Real)
(declare-fun x5 () Real)
(declare-fun y5 () Real)
(declare-fun x6 () Real)
(declare-fun y6 () Real)
(declare-fun x7 () Real)
(declare-fun y7 () Real)
(declare-fun x8 () Real)
(declare-fun y8 () Real)
(declare-fun z () Real)
(declare-fun c () Real)
(assert (and (= c z) (and (>= x0 0) 
(and (>= y0 0) 
(and (>= x1 0) 
(and (>= y1 0) 
(and (>= x2 0) 
(and (>= y2 0) 
(and (>= x3 0) 
(and (>= y3 0) 
(and (>= x4 0) 
(and (>= y4 0) 
(and (>= x5 0) 
(and (>= y5 0) 
(and (>= x6 0) 
(and (>= y6 0) 
(and (>= x7 0) 
(and (>= y7 0) 
(and (>= x8 0) 
(and (>= y8 0) 
(and (>= z 0) 
(and (>= c 0) 
(and (<= (+ x0 0.2659763978) z) 
(and (<= 0.8697869772 y0) 
(and (<= y0 1.0) 
(and (<= x0 (- 4.8336799154 0.2659763978)) 
(and (>= x0 0) 
(and (<= (+ x1 0.4686852482) z) 
(and (<= 0.7860924695 y1) 
(and (<= y1 1.0) 
(and (<= x1 (- 4.8336799154 0.4686852482)) 
(and (>= x1 0) 
(and (<= (+ x2 0.8528400818) z) 
(and (<= 0.7748370644 y2) 
(and (<= y2 1.0) 
(and (<= x2 (- 4.8336799154 0.8528400818)) 
(and (>= x2 0) 
(and (<= (+ x3 0.8142758261) z) 
(and (<= 0.769441391 y3) 
(and (<= y3 1.0) 
(and (<= x3 (- 4.8336799154 0.8142758261)) 
(and (>= x3 0) 
(and (<= (+ x4 0.985567607) z) 
(and (<= 0.7241631461 y4) 
(and (<= y4 1.0) 
(and (<= x4 (- 4.8336799154 0.985567607)) 
(and (>= x4 0) 
(and (<= (+ x5 0.7053432462) z) 
(and (<= 0.5684196716 y5) 
(and (<= y5 1.0) 
(and (<= x5 (- 4.8336799154 0.7053432462)) 
(and (>= x5 0) 
(and (<= (+ x6 0.1623434895) z) 
(and (<= 0.3915978521 y6) 
(and (<= y6 1.0) 
(and (<= x6 (- 4.8336799154 0.1623434895)) 
(and (>= x6 0) 
(and (<= (+ x7 0.7409915083) z) 
(and (<= 0.314742007 y7) 
(and (<= y7 1.0) 
(and (<= x7 (- 4.8336799154 0.7409915083)) 
(and (>= x7 0) 
(and (<= (+ x8 0.315918082) z) 
(and (<= 0.1506638386 y8) 
(and (<= y8 1.0) 
(and (<= x8 (- 4.8336799154 0.315918082)) 
(and (>= x8 0) 
(and (<= c 4.8336799154) 
(and (or (<= (+ x0 0.2659763978) x1) (or (<= (+ x1 0.4686852482) x0) (or (>= (- y0 0.8697869772) y1) (or (>= (- y1 0.7860924695) y0))))) 
(and (or (<= (+ x0 0.2659763978) x2) (or (<= (+ x2 0.8528400818) x0) (or (>= (- y0 0.8697869772) y2) (or (>= (- y2 0.7748370644) y0))))) 
(and (or (<= (+ x0 0.2659763978) x3) (or (<= (+ x3 0.8142758261) x0) (or (>= (- y0 0.8697869772) y3) (or (>= (- y3 0.769441391) y0))))) 
(and (or (<= (+ x0 0.2659763978) x4) (or (<= (+ x4 0.985567607) x0) (or (>= (- y0 0.8697869772) y4) (or (>= (- y4 0.7241631461) y0))))) 
(and (or (<= (+ x0 0.2659763978) x5) (or (<= (+ x5 0.7053432462) x0) (or (>= (- y0 0.8697869772) y5) (or (>= (- y5 0.5684196716) y0))))) 
(and (or (<= (+ x0 0.2659763978) x6) (or (<= (+ x6 0.1623434895) x0) (or (>= (- y0 0.8697869772) y6) (or (>= (- y6 0.3915978521) y0))))) 
(and (or (<= (+ x0 0.2659763978) x7) (or (<= (+ x7 0.7409915083) x0) (or (>= (- y0 0.8697869772) y7) (or (>= (- y7 0.314742007) y0))))) 
(and (or (<= (+ x0 0.2659763978) x8) (or (<= (+ x8 0.315918082) x0) (or (>= (- y0 0.8697869772) y8) (or (>= (- y8 0.1506638386) y0))))) 
(and (or (<= (+ x1 0.4686852482) x2) (or (<= (+ x2 0.8528400818) x1) (or (>= (- y1 0.7860924695) y2) (or (>= (- y2 0.7748370644) y1))))) 
(and (or (<= (+ x1 0.4686852482) x3) (or (<= (+ x3 0.8142758261) x1) (or (>= (- y1 0.7860924695) y3) (or (>= (- y3 0.769441391) y1))))) 
(and (or (<= (+ x1 0.4686852482) x4) (or (<= (+ x4 0.985567607) x1) (or (>= (- y1 0.7860924695) y4) (or (>= (- y4 0.7241631461) y1))))) 
(and (or (<= (+ x1 0.4686852482) x5) (or (<= (+ x5 0.7053432462) x1) (or (>= (- y1 0.7860924695) y5) (or (>= (- y5 0.5684196716) y1))))) 
(and (or (<= (+ x1 0.4686852482) x6) (or (<= (+ x6 0.1623434895) x1) (or (>= (- y1 0.7860924695) y6) (or (>= (- y6 0.3915978521) y1))))) 
(and (or (<= (+ x1 0.4686852482) x7) (or (<= (+ x7 0.7409915083) x1) (or (>= (- y1 0.7860924695) y7) (or (>= (- y7 0.314742007) y1))))) 
(and (or (<= (+ x1 0.4686852482) x8) (or (<= (+ x8 0.315918082) x1) (or (>= (- y1 0.7860924695) y8) (or (>= (- y8 0.1506638386) y1))))) 
(and (or (<= (+ x2 0.8528400818) x3) (or (<= (+ x3 0.8142758261) x2) (or (>= (- y2 0.7748370644) y3) (or (>= (- y3 0.769441391) y2))))) 
(and (or (<= (+ x2 0.8528400818) x4) (or (<= (+ x4 0.985567607) x2) (or (>= (- y2 0.7748370644) y4) (or (>= (- y4 0.7241631461) y2))))) 
(and (or (<= (+ x2 0.8528400818) x5) (or (<= (+ x5 0.7053432462) x2) (or (>= (- y2 0.7748370644) y5) (or (>= (- y5 0.5684196716) y2))))) 
(and (or (<= (+ x2 0.8528400818) x6) (or (<= (+ x6 0.1623434895) x2) (or (>= (- y2 0.7748370644) y6) (or (>= (- y6 0.3915978521) y2))))) 
(and (or (<= (+ x2 0.8528400818) x7) (or (<= (+ x7 0.7409915083) x2) (or (>= (- y2 0.7748370644) y7) (or (>= (- y7 0.314742007) y2))))) 
(and (or (<= (+ x2 0.8528400818) x8) (or (<= (+ x8 0.315918082) x2) (or (>= (- y2 0.7748370644) y8) (or (>= (- y8 0.1506638386) y2))))) 
(and (or (<= (+ x3 0.8142758261) x4) (or (<= (+ x4 0.985567607) x3) (or (>= (- y3 0.769441391) y4) (or (>= (- y4 0.7241631461) y3))))) 
(and (or (<= (+ x3 0.8142758261) x5) (or (<= (+ x5 0.7053432462) x3) (or (>= (- y3 0.769441391) y5) (or (>= (- y5 0.5684196716) y3))))) 
(and (or (<= (+ x3 0.8142758261) x6) (or (<= (+ x6 0.1623434895) x3) (or (>= (- y3 0.769441391) y6) (or (>= (- y6 0.3915978521) y3))))) 
(and (or (<= (+ x3 0.8142758261) x7) (or (<= (+ x7 0.7409915083) x3) (or (>= (- y3 0.769441391) y7) (or (>= (- y7 0.314742007) y3))))) 
(and (or (<= (+ x3 0.8142758261) x8) (or (<= (+ x8 0.315918082) x3) (or (>= (- y3 0.769441391) y8) (or (>= (- y8 0.1506638386) y3))))) 
(and (or (<= (+ x4 0.985567607) x5) (or (<= (+ x5 0.7053432462) x4) (or (>= (- y4 0.7241631461) y5) (or (>= (- y5 0.5684196716) y4))))) 
(and (or (<= (+ x4 0.985567607) x6) (or (<= (+ x6 0.1623434895) x4) (or (>= (- y4 0.7241631461) y6) (or (>= (- y6 0.3915978521) y4))))) 
(and (or (<= (+ x4 0.985567607) x7) (or (<= (+ x7 0.7409915083) x4) (or (>= (- y4 0.7241631461) y7) (or (>= (- y7 0.314742007) y4))))) 
(and (or (<= (+ x4 0.985567607) x8) (or (<= (+ x8 0.315918082) x4) (or (>= (- y4 0.7241631461) y8) (or (>= (- y8 0.1506638386) y4))))) 
(and (or (<= (+ x5 0.7053432462) x6) (or (<= (+ x6 0.1623434895) x5) (or (>= (- y5 0.5684196716) y6) (or (>= (- y6 0.3915978521) y5))))) 
(and (or (<= (+ x5 0.7053432462) x7) (or (<= (+ x7 0.7409915083) x5) (or (>= (- y5 0.5684196716) y7) (or (>= (- y7 0.314742007) y5))))) 
(and (or (<= (+ x5 0.7053432462) x8) (or (<= (+ x8 0.315918082) x5) (or (>= (- y5 0.5684196716) y8) (or (>= (- y8 0.1506638386) y5))))) 
(and (or (<= (+ x6 0.1623434895) x7) (or (<= (+ x7 0.7409915083) x6) (or (>= (- y6 0.3915978521) y7) (or (>= (- y7 0.314742007) y6))))) 
(and (or (<= (+ x6 0.1623434895) x8) (or (<= (+ x8 0.315918082) x6) (or (>= (- y6 0.3915978521) y8) (or (>= (- y8 0.1506638386) y6))))) 
(and (or (<= (+ x7 0.7409915083) x8) (or (<= (+ x8 0.315918082) x7) (or (>= (- y7 0.314742007) y8) (or (>= (- y8 0.1506638386) y7))))) ))))))))))))))))))))))))))))))))))))))))))))))))))))))))))))))))))))))))))))))))))))))))))))))))))))))))
(minimize c)
(check-sat)
(get-objectives)
(exit)
